20
80
4
9
2
76
29
0 1
0 2
0 4
0 5
0 6
0 10
0 13
0 19
1 2
1 10
1 11
1 13
1 17
1 18
2 3
2 4
2 7
2 12
2 14
2 18
2 19
3 6
3 8
3 11
3 13
3 19
4 8
4 9
4 10
4 11
4 14
4 16
4 17
5 6
5 7
5 8
5 10
5 11
5 14
5 19
6 7
6 9
6 10
6 11
6 16
7 8
7 11
7 12
7 19
8 10
8 12
8 15
8 16
8 18
8 19
9 11
9 13
9 17
10 11
10 13
10 14
10 15
10 17
11 12
11 13
11 15
11 17
11 18
11 19
12 14
12 18
12 19
13 14
13 15
13 16
13 17
13 18
14 17
15 17
15 19
2 6 3 16 5
11 14 12 9 15
10 7 18 19 1
0 13 4 8 17
